NAME: tsp30-11
TYPE: TSP
DIMENSION: 30
EDGE_WEIGHT_TYPE: EUC_2D
NODE_COORD_SECTION
0 11 7
1 1 75
2 41 49
3 0 21
4 54 32
5 86 76
6 87 95
7 45 32
8 41 82
9 45 36
10 84 1
11 90 49
12 20 75
13 93 82
14 74 50
15 44 41
16 5 49
17 65 82
18 36 89
19 70 10
20 22 71
21 85 66
22 56 79
23 12 35
24 58 71
25 33 54
26 96 23
27 53 18
28 55 58
29 79 24
EOF